TOUR_SECTION
74
28
58
57
143
173
157
128
27
97
175
76
24
87
86
148
172
124
73
55
194
10
5
88
29
83
134
79
109
42
26
113
156
174
96
71
77
81
169
90
95
53
70
49
126
44
141
170
123
186
164
39
35
137
22
136
69
43
127
130
41
54
25
47
112
30
64
7
19
198
142
92
146
192
11
155
190
162
59
144
200
199
133
163
32
99
197
66
75
139
17
149
2
3
179
63
31
4
20
68
159
168
38
6
171
110
8
189
45
89
80
14
108
118
116
94
107
102
158
9
51
67
13
153
103
62
50
46
122
105
154
178
104
52
60
187
91
12
61
100
16
115
182
72
185
33
167
184
85
119
140
48
121
150
15
23
98
117
135
101
138
183
132
160
120
36
193
1
145
161
56
125
181
37
166
40
180
111
114
152
21
18
188
93
129
131
34
147
177
176
195
106
78
191
165
65
151
82
196
84
-1
EOF